scripts/logs/LP-i7-4/bwp_3_4_1.LP.log.out
Sun 20 May 08:57:02 CEST 2018
CPXPARAM_TimeLimit                               45
CPXPARAM_Threads                                 4
CPXPARAM_MIP_Strategy_CallbackReducedLP          0
Tried aggregator 2 times.
MIP Presolve eliminated 144 rows and 148 columns.
Aggregator did 96 substitutions.
Reduced MIP has 128 rows, 149 columns, and 320 nonzeros.
Reduced MIP has 144 binaries, 5 generals, 0 SOSs, and 36 indicators.
Presolve time = 0.00 sec. (0.53 ticks)
Found incumbent of value 4.000000 after 0.00 sec. (1.28 ticks)
Probing time = 0.00 sec. (0.36 ticks)
Cover probing fixed 0 vars, tightened 5 bounds.
Tried aggregator 3 times.
MIP Presolve modified 24 coefficients.
Aggregator did 60 substitutions.
Reduced MIP has 80 rows, 89 columns, and 224 nonzeros.
Reduced MIP has 84 binaries, 5 generals, 0 SOSs, and 24 indicators.
Presolve time = 0.00 sec. (0.38 ticks)
Probing time = 0.00 sec. (0.16 ticks)
Tried aggregator 2 times.
Aggregator did 12 substitutions.
Reduced MIP has 68 rows, 77 columns, and 200 nonzeros.
Reduced MIP has 72 binaries, 5 generals, 0 SOSs, and 24 indicators.
Presolve time = 0.00 sec. (0.38 ticks)
Probing time = 0.00 sec. (0.13 ticks)
Clique table members: 198.
MIP emphasis: balance optimality and feasibility.
MIP search method: dynamic search.
Parallel mode: deterministic, using up to 4 threads.
Root relaxation solution time = 0.00 sec. (0.10 ticks)

        Nodes                                         Cuts/
   Node  Left     Objective  IInf  Best Integer    Best Bound    ItCnt     Gap

*     0+    0                            4.0000        1.0000            75.00%
      0     0        1.0000    24        4.0000        1.0000        6   75.00%
*     0+    0                            2.0000        1.0000            50.00%
      0     0        cutoff              2.0000                      6    0.00%
Elapsed time = 0.01 sec. (3.29 ticks, tree = 0.01 MB, solutions = 2)

Root node processing (before b&c):
  Real time             =    0.01 sec. (3.30 ticks)
Parallel b&c, 4 threads:
  Real time             =    0.00 sec. (0.00 ticks)
  Sync time (average)   =    0.00 sec.
  Wait time (average)   =    0.00 sec.
                          ------------
Total (root+branch&cut) =    0.01 sec. (3.30 ticks)
  | W
L | 0 1 2 
----------
0 | 4 . . 
1 | 3 2 1 
2 | . . . 
3 | . . . 

Boxes' corners:      (w,l)
    Box 1 is at 
        top left     (2,1)
        bottom right (2,1)

    Box 2 is at 
        top left     (1,1)
        bottom right (1,1)

    Box 3 is at 
        top left     (0,1)
        bottom right (0,1)

    Box 4 is at 
        top left     (0,0)
        bottom right (0,0)

    Roll length used: 2
In 0.01 seconds
